c description: Random 3-CNF over 19 variables and 81 clauses
c generator: CNFgen (0.9.2)
c copyright: (C) 2012-2022 Massimo Lauria <massimo.lauria@uniroma1.it>
c url: https://massimolauria.net/cnfgen
c command line: cnfgen --output CNF_4.28/19_bit_81_582.cnf randkcnf 3 19 81
c
p cnf 19 81
8 12 -18 0
-5 -8 10 0
-7 13 -14 0
-7 -14 -19 0
-4 9 -10 0
4 -10 -19 0
4 10 -11 0
1 -13 -14 0
-1 5 10 0
5 11 -15 0
1 4 -17 0
11 17 19 0
-1 15 16 0
6 10 17 0
-1 -13 -18 0
-2 9 10 0
2 12 -19 0
-2 -9 -10 0
6 7 -14 0
-1 5 9 0
4 13 -17 0
9 13 17 0
11 -15 19 0
-1 3 -6 0
-5 -11 -16 0
-6 13 14 0
4 -6 17 0
4 9 17 0
11 -15 -17 0
7 16 -17 0
-13 16 19 0
-2 -11 -15 0
-4 18 19 0
6 -10 -14 0
-4 12 14 0
-11 15 19 0
1 11 -18 0
4 -7 -12 0
-2 -9 -19 0
10 13 -17 0
-11 -12 -17 0
-8 -10 19 0
3 5 -11 0
-1 7 -16 0
4 7 -10 0
11 -12 -13 0
-1 -5 16 0
-9 -10 15 0
6 9 -10 0
-3 13 14 0
-12 -15 -18 0
1 -2 16 0
-10 12 -17 0
3 6 11 0
-5 -8 15 0
-2 -5 -8 0
4 -16 18 0
7 9 -18 0
9 12 -14 0
4 8 16 0
-11 -15 16 0
10 -16 -19 0
-1 -11 -14 0
4 6 -14 0
-5 -15 18 0
-11 18 -19 0
7 -13 -17 0
2 8 -13 0
8 -13 15 0
-2 -6 -7 0
6 -7 -19 0
-6 -8 -14 0
-8 11 -16 0
-1 9 12 0
4 -5 -7 0
3 -4 -13 0
-4 -5 -17 0
2 3 14 0
4 7 14 0
-6 9 -19 0
4 5 14 0
